
******************************************************************************
This program contains Ipopt, a library for large-scale nonlinear optimization.
 Ipopt is released as open source code under the Eclipse Public License (EPL).
         For more information visit http://projects.coin-or.org/Ipopt

This version of Ipopt was compiled from source code available at
    https://github.com/IDAES/Ipopt as part of the Institute for the Design of
    Advanced Energy Systems Process Systems Engineering Framework (IDAES PSE
    Framework) Copyright (c) 2018-2019. See https://github.com/IDAES/idaes-pse.

This version of Ipopt was compiled using HSL, a collection of Fortran codes
    for large-scale scientific computation.  All technical papers, sales and
    publicity material resulting from use of the HSL codes within IPOPT must
    contain the following acknowledgement:
        HSL, a collection of Fortran codes for large-scale scientific
        computation. See http://www.hsl.rl.ac.uk.
******************************************************************************

This is Ipopt version 3.13.2, running with linear solver ma27.

Number of nonzeros in equality constraint Jacobian...:     1210
Number of nonzeros in inequality constraint Jacobian.:        0
Number of nonzeros in Lagrangian Hessian.............:     1376

Total number of variables............................:      480
                     variables with only lower bounds:      128
                variables with lower and upper bounds:      288
                     variables with only upper bounds:        0
Total number of equality constraints.................:      477
Total number of inequality constraints...............:        0
        inequality constraints with only lower bounds:        0
   inequality constraints with lower and upper bounds:        0
        inequality constraints with only upper bounds:        0

iter    objective    inf_pr   inf_du lg(mu)  ||d||  lg(rg) alpha_du alpha_pr  ls
   0  0.0000000e+00 1.28e+00 1.42e-14  -1.0 0.00e+00    -  0.00e+00 0.00e+00   0
   1  3.0503457e+01 9.67e-01 3.84e+06  -1.0 1.32e+06    -  8.00e-02 3.74e-01h  2
   2  3.3726565e+01 9.55e-01 3.85e+06  -1.0 5.55e+06    -  8.57e-02 1.23e-02h  5
   3  3.9116364e+01 9.40e-01 3.87e+06  -1.0 5.79e+06    -  9.22e-02 1.65e-02h  5
   4  4.7209877e+01 9.21e-01 3.88e+06  -1.0 5.78e+06    -  1.07e-01 1.97e-02h  5
   5  5.9187898e+01 9.01e-01 3.86e+06  -1.0 5.67e+06    -  1.50e-01 2.16e-02h  5
   6  7.9050179e+01 8.80e-01 3.82e+06  -1.0 7.37e+06    -  1.30e-01 2.37e-02h  5
   7  1.1543119e+02 8.57e-01 3.75e+06  -1.0 9.66e+06    -  1.17e-01 2.59e-02h  5
   8  1.4761987e+02 8.45e-01 3.70e+06  -1.0 1.33e+07    -  1.04e-01 1.39e-02h  6
   9  1.9877038e+02 8.33e-01 3.64e+06  -1.0 1.69e+07    -  1.35e-01 1.47e-02h  6
iter    objective    inf_pr   inf_du lg(mu)  ||d||  lg(rg) alpha_du alpha_pr  ls
  10  2.4165328e+02 8.26e-01 3.60e+06  -1.0 2.36e+07    -  1.50e-01 7.88e-03h  7
  11  2.1878266e+04 2.85e+01 5.44e+08  -1.0 3.20e+07    -  1.24e-01 4.54e-01w  1
  12  1.5956065e+04 2.35e+01 8.35e+11  -1.0 3.62e+07  -4.0 1.21e-02 1.75e-01w  1
  13  3.3954676e+04 3.45e+00 1.23e+12  -1.0 1.20e+07  -3.6 1.07e-01 9.90e-01w  1
  14  2.9951567e+02 8.20e-01 3.57e+06  -1.0 3.96e+08  -4.1 1.24e-01 7.09e-03h  6
  15  3.3623674e+02 8.18e-01 3.55e+06  -1.0 5.15e+07    -  8.61e-02 2.63e-03h  8
  16  3.7993189e+02 8.17e-01 3.54e+06  -1.0 8.35e+07    -  5.81e-02 1.83e-03h  8
  17  3.8784128e+02 8.17e-01 3.54e+06  -1.0 4.18e+08    -  7.14e-03 6.54e-05h 10
  18  4.2271536e+02 7.83e-01 3.96e+07  -1.0 5.39e+06  -4.5 3.61e-01 4.12e-02h  3
  19  4.2572924e+02 7.77e-01 3.94e+07  -1.0 3.51e+06  -5.0 7.37e-01 7.68e-03h  5
iter    objective    inf_pr   inf_du lg(mu)  ||d||  lg(rg) alpha_du alpha_pr  ls
  20  4.5108859e+02 7.60e-01 4.14e+07  -1.0 5.36e+06    -  3.33e-01 2.25e-02h  4
  21  4.6215334e+02 7.48e-01 4.34e+07  -1.0 1.01e+07    -  7.28e-01 1.57e-02h  4
  22  8.9187181e+02 7.03e-01 1.52e+08  -1.0 1.43e+07    -  1.39e-01 6.01e-02h  4
  23  1.4078498e+03 6.97e-01 5.15e+08  -1.0 1.53e+07    -  3.76e-01 5.78e-02h  3
  24  3.0857923e+03 3.73e+00 6.05e+09  -1.0 1.80e+07    -  9.76e-01 1.80e-01w  1
  25  2.9747164e+03 5.50e+00 8.48e+08  -1.0 3.46e+06    -  9.90e-01 2.56e-01w  1
  26  3.0098583e+03 5.34e+00 6.91e+08  -1.0 6.23e+06  -3.7 6.92e-02 2.78e-02w  1
  27  1.7420684e+03 6.65e-01 7.62e+08  -1.0 2.26e+06  -3.3 9.76e-01 4.49e-02h  2
  28  2.9758534e+03 6.43e-01 9.66e+08  -1.0 9.74e+07    -  5.39e-02 2.76e-02h  4
  29  4.3706798e+03 6.24e-01 1.07e+09  -1.0 8.09e+07    -  1.38e-01 2.62e-02h  4
iter    objective    inf_pr   inf_du lg(mu)  ||d||  lg(rg) alpha_du alpha_pr  ls
  30  7.0255645e+03 6.06e-01 1.20e+09  -1.0 1.10e+08    -  1.73e-01 2.73e-02h  4
  31  1.2104176e+04 5.87e-01 1.38e+09  -1.0 1.50e+08    -  1.19e-01 2.83e-02h  4
  32  1.9194633e+04 5.69e-01 1.58e+09  -1.0 1.56e+08    -  2.80e-01 2.88e-02h  4
  33  3.3742428e+04 5.51e-01 1.97e+09  -1.0 2.28e+08    -  1.08e-01 3.07e-02h  4
  34  5.2915463e+04 5.41e-01 2.38e+09  -1.0 2.27e+08    -  5.06e-01 3.12e-02h  4
  35  9.3207745e+04 5.34e-01 3.09e+09  -1.0 3.50e+08    -  1.11e-01 3.31e-02h  4
  36  1.0151329e+05 5.31e-01 3.10e+09  -1.0 3.22e+08    -  8.76e-01 6.37e-03h  6
  37  1.6568296e+06 3.74e+00 8.38e+10  -1.0 5.37e+08    -  1.01e-01 2.81e-01w  1
  38  1.4862104e+06 4.11e+00 7.23e+10  -1.0 1.74e+08    -  4.99e-01 8.55e-02w  1
  39  1.8168679e+05 2.06e+00 1.04e+11  -1.0 4.46e+08    -  3.23e-02 4.12e-01w  1
iter    objective    inf_pr   inf_du lg(mu)  ||d||  lg(rg) alpha_du alpha_pr  ls
  40  1.9311945e+05 5.21e-01 4.26e+09  -1.0 6.34e+06  -2.8 1.01e-01 3.52e-02h  3
  41  2.0123328e+05 5.19e-01 4.25e+09  -1.0 4.42e+08    -  6.38e-01 3.27e-03h  7
  42  3.1996508e+05 5.04e-01 5.45e+09  -1.0 5.20e+08    -  1.69e-01 3.58e-02h  4
  43  3.4129087e+05 5.01e-01 5.46e+09  -1.0 4.27e+08    -  4.62e-01 6.97e-03h  6
  44  4.7315044e+05 4.84e-01 6.58e+09  -1.0 4.50e+08    -  3.25e-01 3.71e-02h  4
  45  4.7831374e+05 4.97e-01 6.57e+09  -1.0 3.76e+08    -  3.25e-01 1.60e-03h  8
  46  6.1230458e+05 5.80e-01 7.57e+09  -1.0 3.79e+08    -  6.05e-01 3.86e-02h  4
  47  6.3572161e+05 6.41e-01 7.56e+09  -1.0 3.11e+08    -  9.92e-01 7.63e-03h  6
  48  7.6330118e+05 6.73e-01 8.38e+09  -1.0 3.00e+08    -  2.53e-01 4.07e-02h  4
  49  7.7291257e+05 6.99e-01 8.35e+09  -1.0 2.19e+08    -  1.00e+00 3.91e-03h  7
iter    objective    inf_pr   inf_du lg(mu)  ||d||  lg(rg) alpha_du alpha_pr  ls
  50  1.7157671e+06 3.54e+00 5.91e+10  -1.0 1.93e+08    -  7.49e-02 3.44e-01w  1
  51  1.5749130e+05 1.22e+01 1.04e+12  -1.0 8.27e+08    -  3.73e-01 2.46e-01w  1
  52  1.5752859e+05 1.20e+01 1.02e+12  -1.0 3.98e+06  -3.3 1.61e-01 1.03e-02w  1
  53  8.7044467e+05 7.63e-01 8.79e+09  -1.0 6.72e+06  -3.8 7.49e-02 4.30e-02h  3
  54  8.8634838e+05 7.90e-01 8.75e+09  -1.0 2.08e+08    -  8.28e-01 6.32e-03h  5
  55  9.0154320e+05 7.86e-01 8.71e+09  -1.0 2.01e+08    -  1.00e+00 6.17e-03h  5
  56  1.0223368e+06 8.65e-01 9.07e+09  -1.0 1.98e+08    -  1.00e+00 4.81e-02h  2
  57  1.0312804e+06 8.62e-01 9.04e+09  -1.0 1.63e+08    -  1.00e+00 4.07e-03h  5
  58  1.0400981e+06 8.86e-01 9.01e+09  -1.0 1.66e+08    -  1.00e+00 3.93e-03h  5
  59  1.0729987e+06 8.86e-01 8.92e+09  -1.0 1.57e+08    -  1.00e+00 1.52e-02h  3
iter    objective    inf_pr   inf_du lg(mu)  ||d||  lg(rg) alpha_du alpha_pr  ls
  60  1.0780731e+06 8.86e-01 8.92e+09  -1.0 8.37e+09    -  1.95e-02 5.06e-05h 11
  61r 1.0780731e+06 8.86e-01 1.00e+03  -0.1 0.00e+00  -4.3 0.00e+00 4.38e-07R 16
  62r 1.0780731e+06 5.97e-01 9.97e+02  -0.1 1.18e+03    -  3.06e-03 1.59e-03f  1
  63  1.0691541e+06 7.29e-01 2.49e+06  -1.0 3.09e+07    -  6.16e-01 7.52e-02f  2
  64  1.0699219e+06 7.33e-01 2.72e+06  -1.0 2.92e+07    -  6.70e-01 1.15e-02h  4
  65  1.0712297e+06 7.30e-01 3.40e+06  -1.0 2.66e+07    -  3.70e-01 4.61e-03h  5
  66  1.0793325e+06 7.27e-01 6.88e+06  -1.0 1.34e+08    -  3.02e-01 4.65e-03h  5
  67  1.1362721e+06 7.23e-01 8.13e+06  -1.0 9.82e+08    -  1.40e-01 4.68e-03h  5
  68  1.4626737e+05 1.19e+00 1.06e+07  -1.0 1.13e+10    -  3.57e-02 6.25e-04H  1
  69  2.6972750e+05 1.18e+00 1.83e+07  -1.0 2.49e+09    -  2.43e-02 9.24e-03h  5
iter    objective    inf_pr   inf_du lg(mu)  ||d||  lg(rg) alpha_du alpha_pr  ls
  70  7.5419190e+05 1.16e+00 5.15e+07  -1.0 3.54e+09    -  2.34e-02 1.69e-02h  4
  71  1.0324626e+06 1.16e+00 5.98e+07  -1.0 4.26e+09    -  3.27e-02 6.15e-03h  5
  72  1.0690968e+06 1.15e+00 5.99e+07  -1.0 4.43e+09    -  3.70e-02 7.23e-04h  8
  73r 1.0690968e+06 1.15e+00 1.00e+03   0.1 0.00e+00    -  0.00e+00 3.68e-07R 19
  74r 1.0690968e+06 1.12e+00 9.97e+02   0.1 5.92e+03    -  2.51e-02 1.64e-03f  1
  75r 1.0690968e+06 1.05e+00 9.77e+02   0.1 6.75e+02    -  2.08e-03 2.08e-02f  1
  76r 1.0690968e+06 1.03e+00 9.85e+02   0.1 6.58e+02    -  3.61e-03 2.77e-03f  1
  77  7.1439981e+05 2.17e+00 7.15e+06  -1.0 1.67e+08    -  2.90e-02 2.15e-01f  3
  78  5.6486362e+05 4.42e+00 1.84e+07  -1.0 2.44e+08    -  3.64e-01 1.15e-01f  1
  79  2.7791795e+04 3.67e+00 1.93e+07  -1.0 1.02e+08    -  3.98e-01 9.90e-01f  1
iter    objective    inf_pr   inf_du lg(mu)  ||d||  lg(rg) alpha_du alpha_pr  ls
  80  1.5185408e+05 2.96e+00 3.77e+08  -1.0 3.39e+07    -  1.87e-01 9.90e-01h  1
  81  1.6553048e+05 2.93e+00 3.72e+08  -1.0 2.02e+08    -  1.53e-01 1.30e-02h  4
  82  2.1323511e+05 2.86e+00 3.64e+08  -1.0 3.86e+08    -  1.66e-01 2.37e-02h  3
  83  2.6906098e+05 2.81e+00 3.60e+08  -1.0 5.59e+08    -  1.42e-01 1.73e-02h  3
  84  3.3259597e+05 2.77e+00 3.60e+08  -1.0 7.68e+08    -  2.38e-01 1.30e-02h  3
  85  4.1696005e+05 2.74e+00 3.61e+08  -1.0 1.19e+09    -  1.54e-01 9.91e-03h  3
  86  6.6436160e+05 2.70e+00 3.82e+08  -1.0 1.91e+09    -  8.51e-02 1.50e-02h  2
  87  9.6284395e+05 2.66e+00 4.24e+08  -1.0 1.90e+09    -  3.35e-01 1.51e-02h  1
  88  9.9064056e+05 2.66e+00 4.24e+08  -1.0 1.48e+10    -  1.08e-02 1.68e-04h  1
  89  1.0343535e+06 2.66e+00 4.24e+08  -1.0 1.40e+11    -  1.60e-03 2.75e-05h  6
iter    objective    inf_pr   inf_du lg(mu)  ||d||  lg(rg) alpha_du alpha_pr  ls
  90  1.0652737e+06 2.66e+00 4.24e+08  -1.0 1.46e+11    -  2.26e-03 1.83e-05h  8
  91  1.0960804e+06 2.66e+00 4.24e+08  -1.0 1.50e+11    -  2.20e-03 1.75e-05h  9
  92  1.1426545e+06 2.66e+00 4.25e+08  -1.0 1.54e+11    -  9.06e-03 2.53e-05h  9
  93r 1.1426545e+06 2.66e+00 1.00e+03   0.4 0.00e+00    -  0.00e+00 4.73e-07R 16
  94r 1.1426545e+06 1.69e+00 1.01e+03   0.4 8.90e+03    -  3.62e-03 3.35e-03f  1
  95r 1.1426545e+06 1.69e+00 9.99e+02   0.2 0.00e+00    -  0.00e+00 2.93e-07R  4
  96r 1.1426545e+06 5.27e-01 9.98e+02   0.2 1.48e+03    -  3.32e-04 2.08e-03f  1
  97  1.1426120e+06 5.26e-01 1.00e+03  -1.0 4.43e+07    -  4.87e-01 4.89e-04f  1
  98r 1.1426120e+06 5.26e-01 1.00e+03  -0.3 0.00e+00    -  0.00e+00 2.81e-07R  6
  99r 1.1426120e+06 5.24e-01 1.15e+03  -0.3 1.92e+03    -  2.62e-02 2.55e-03f  1
iter    objective    inf_pr   inf_du lg(mu)  ||d||  lg(rg) alpha_du alpha_pr  ls
 100r 1.1426120e+06 4.94e-01 1.06e+03  -0.3 5.85e+02    -  2.16e-02 2.97e-02f  1
 101r 1.1426121e+06 3.63e-01 1.10e+03  -0.3 4.23e+02    -  4.84e-03 2.29e-02f  1
 102r 1.1426121e+06 3.63e-01 9.99e+02  -0.4 0.00e+00    -  0.00e+00 4.37e-07R  5
 103r 1.1426120e+06 2.05e-01 9.91e+02  -0.4 5.83e+02    -  3.39e-03 8.51e-03f  1
 104  1.1425658e+06 2.04e-01 5.07e+03  -1.0 5.24e+07    -  4.46e-01 4.20e-04f  1
 105r 1.1425658e+06 2.04e-01 1.00e+03  -0.7 0.00e+00    -  0.00e+00 3.04e-07R  6
 106r 1.1425658e+06 2.05e-01 9.98e+02  -0.7 3.98e+02    -  1.34e-02 1.26e-02f  1
 107r 1.1425658e+06 2.05e-01 9.87e+02  -0.7 4.30e+02    -  4.44e-03 5.04e-03f  1
 108r 1.1425658e+06 2.05e-01 9.86e+02  -0.7 4.19e+02    -  9.71e-04 3.68e-03f  1
 109r 1.1425658e+06 2.05e-01 1.08e+03  -0.7 1.66e+02    -  1.23e-02 2.36e-03f  1
iter    objective    inf_pr   inf_du lg(mu)  ||d||  lg(rg) alpha_du alpha_pr  ls
 110r 1.1425658e+06 2.05e-01 1.08e+03  -0.7 2.10e+02    -  1.54e-02 1.42e-02f  1
 111r 1.1425658e+06 2.06e-01 1.66e+03  -0.7 1.98e+02    -  7.32e-02 2.82e-02f  1
 112r 1.1425658e+06 2.07e-01 1.65e+03  -0.7 9.80e+01    -  8.99e-02 8.07e-02f  1
 113r 1.1425658e+06 2.06e-01 6.87e+03  -0.7 9.27e+01    -  6.41e-01 1.59e-01f  1
 114r 1.1425658e+06 6.23e-02 1.17e+03  -0.7 1.40e+02    -  1.20e-02 7.61e-01f  1
 115  1.1425601e+06 6.23e-02 7.77e+03  -1.0 5.73e+07    -  4.24e-01 5.48e-05f  1
 116  1.1425760e+06 6.23e-02 4.71e+04  -1.0 6.24e+07    -  1.29e-04 1.29e-04s 10
 117r 1.1425760e+06 6.23e-02 1.00e+03  -1.0 0.00e+00    -  0.00e+00 0.00e+00R  1
 118r 1.1425760e+06 6.23e-02 2.09e+03  -1.0 1.03e+02    -  1.68e-01 2.27e-03f  1
 119r 1.1425761e+06 6.25e-02 3.82e+03  -1.0 1.15e+02    -  5.31e-01 1.98e-01f  1
iter    objective    inf_pr   inf_du lg(mu)  ||d||  lg(rg) alpha_du alpha_pr  ls
 120r 1.1425761e+06 7.06e-02 1.27e+03  -1.0 1.56e+02    -  4.00e-01 5.59e-01f  1
 121r 1.1425762e+06 6.99e-02 1.35e+03  -1.0 1.28e+02    -  4.03e-01 1.95e-01f  1
 122r 1.1425762e+06 6.88e-02 1.10e+03  -1.0 1.54e+02    -  5.02e-01 3.12e-01f  1
 123r 1.1425763e+06 6.81e-02 9.09e+02  -1.0 1.69e+02    -  4.06e-01 2.45e-01f  1
 124r 1.1425763e+06 6.70e-02 6.19e+02  -1.0 1.60e+02    -  6.83e-01 4.07e-01f  1
 125r 1.1425764e+06 6.55e-02 2.43e+02  -1.0 1.27e+02    -  3.83e-01 8.59e-01f  1
 126r 1.1425764e+06 6.52e-02 3.92e+00  -1.0 6.08e+01    -  9.88e-01 1.00e+00f  1
 127r 1.1425763e+06 6.52e-02 2.28e+00  -1.0 1.70e+01    -  9.90e-01 1.00e+00f  1
 128r 1.1425763e+06 6.52e-02 9.15e-01  -1.0 6.58e+00    -  9.90e-01 1.00e+00h  1
 129r 1.1425764e+06 6.46e-02 5.99e+01  -1.7 3.59e+01    -  4.80e-01 6.35e-01f  1
iter    objective    inf_pr   inf_du lg(mu)  ||d||  lg(rg) alpha_du alpha_pr  ls
 130r 1.1425768e+06 6.45e-02 3.63e+02  -1.7 4.78e+02    -  9.97e-01 5.47e-01f  1
 131r 1.1425770e+06 6.44e-02 1.74e-02  -1.7 2.17e+02    -  1.00e+00 1.00e+00f  1
 132r 1.1425771e+06 6.45e-02 1.05e+02  -3.8 1.36e+02    -  7.32e-01 5.89e-01f  1
 133r 1.1425780e+06 6.36e-02 1.05e+03  -3.8 8.34e+03    -  9.51e-01 1.12e-01f  1
 134r 1.1425813e+06 6.28e-02 5.66e+02  -3.8 7.42e+03    -  8.09e-01 5.48e-01f  1
 135r 1.1425833e+06 6.21e-02 1.56e+02  -3.8 3.38e+03    -  8.87e-01 4.97e-01f  1
 136r 1.1425840e+06 6.17e-02 1.22e+02  -3.8 1.71e+03    -  1.00e+00 6.99e-01f  1
 137r 1.1425842e+06 6.15e-02 3.42e+01  -3.8 5.15e+02    -  1.00e+00 7.86e-01f  1
 138r 1.1425842e+06 6.15e-02 7.09e+00  -3.8 1.11e+02    -  1.00e+00 8.18e-01f  1
 139r 1.1425842e+06 6.15e-02 5.13e-04  -3.8 4.48e+01    -  1.00e+00 1.00e+00f  1
iter    objective    inf_pr   inf_du lg(mu)  ||d||  lg(rg) alpha_du alpha_pr  ls
 140r 1.1425842e+06 5.97e-02 2.18e-01  -5.7 4.00e+01    -  9.71e-01 1.00e+00f  1
 141r 1.1425851e+06 5.97e-02 1.06e+01  -5.7 6.90e+04    -  2.53e-02 1.28e-02f  1
 142r 1.1425874e+06 5.96e-02 9.52e+01  -5.7 6.81e+04    -  1.35e-01 3.48e-02f  1
 143r 1.1425939e+06 5.93e-02 5.86e+02  -5.7 6.57e+04    -  8.30e-01 1.84e-01f  1
 144r 1.1426028e+06 5.87e-02 4.95e+02  -5.7 5.38e+04    -  1.00e+00 3.08e-01f  1
 145r 1.1426056e+06 5.83e-02 5.82e+02  -5.7 3.02e+04    -  1.00e+00 3.67e-01f  1
 146r 1.1426094e+06 5.76e-02 1.26e+02  -5.7 1.91e+04    -  1.00e+00 7.82e-01f  1
 147r 1.1426095e+06 5.76e-02 1.18e+02  -5.7 4.18e+03    -  1.00e+00 1.38e-01h  1
 148r 1.1426096e+06 5.76e-02 1.08e+02  -5.7 3.60e+03    -  1.00e+00 7.28e-02h  1
 149r 1.1426096e+06 5.76e-02 9.92e+01  -5.7 3.34e+03    -  1.00e+00 3.14e-02h  1
iter    objective    inf_pr   inf_du lg(mu)  ||d||  lg(rg) alpha_du alpha_pr  ls
 150r 1.1426104e+06 5.74e-02 3.97e-01  -5.7 3.23e+03    -  1.00e+00 1.00e+00h  1
 151r 1.1426104e+06 5.74e-02 4.34e-03  -5.7 3.13e+00    -  1.00e+00 1.00e+00h  1
 152r 1.1426104e+06 5.74e-02 5.36e-07  -5.7 3.20e-03    -  1.00e+00 1.00e+00h  1
 153r 1.1426104e+06 5.61e-02 5.18e-02  -8.6 5.06e-01    -  9.62e-01 9.96e-01f  1
 154r 1.1426104e+06 5.61e-02 5.62e+02  -8.6 3.84e+00  -4.0 1.00e+00 1.65e-01f  1
 155r 1.1426104e+06 5.60e-02 2.16e-02  -8.6 1.09e+01  -4.5 1.00e+00 1.00e+00f  1
 156r 1.1426104e+06 5.61e-02 1.26e-01  -8.6 2.54e+01  -5.0 1.00e+00 1.00e+00f  1
 157r 1.1426104e+06 5.61e-02 2.48e+02  -8.6 3.55e+01  -5.4 1.33e-01 1.00e+00f  1
 158r 1.1426104e+06 5.61e-02 2.18e-01  -8.6 2.16e+02  -5.9 1.00e+00 1.00e+00f  1
 159r 1.1426104e+06 5.61e-02 2.31e+01  -8.6 6.02e+02  -6.4 2.90e-01 1.00e+00f  1
iter    objective    inf_pr   inf_du lg(mu)  ||d||  lg(rg) alpha_du alpha_pr  ls
 160r 1.1426103e+06 5.61e-02 1.57e+01  -8.6 1.86e+03  -6.9 1.00e+00 2.94e-01f  1
 161r 1.1426102e+06 5.61e-02 4.45e+02  -8.6 8.97e+02  -7.3 1.22e-01 1.00e+00f  1
 162r 1.1426087e+06 5.61e-02 6.13e+01  -8.6 2.13e+04  -7.8 9.27e-01 8.80e-01f  1
 163r 1.1426085e+06 5.61e-02 6.58e+01  -8.6 5.48e+04  -8.3 7.94e-02 4.41e-02f  1
 164r 1.1426073e+06 5.61e-02 5.98e+02  -8.6 1.54e+05  -8.8 1.00e+00 9.95e-02f  1
 165r 1.1426073e+06 5.61e-02 5.98e+02  -8.6 7.34e+04  -9.2 0.00e+00 1.89e-12R 13
 166r 1.1426073e+06 5.61e-02 3.23e+02  -8.6 2.25e+05  -9.7 1.00e+00 9.69e-13f 14
 167r 1.1426037e+06 5.61e-02 3.27e+02  -8.6 7.16e+05 -10.2 1.00e+00 3.03e-02f  1
 168r 1.1425882e+06 5.61e-02 3.79e+02  -8.6 6.91e+06    -  4.16e-01 1.55e-02f  1
 169r 1.1425882e+06 5.61e-02 3.79e+02  -8.6 2.29e+06    -  9.79e-10 1.00e-06f  1
iter    objective    inf_pr   inf_du lg(mu)  ||d||  lg(rg) alpha_du alpha_pr  ls
 170r 1.1425750e+06 5.61e-02 3.69e+02  -8.6 7.72e+06    -  7.78e-03 1.27e-02f  2
 171r 1.1425612e+06 5.61e-02 3.66e+02  -8.6 1.00e+07    -  9.09e-03 9.17e-03f  1
 172r 1.1425612e+06 5.61e-02 3.66e+02  -8.6 2.75e+05    -  0.00e+00 2.62e-13R 14
 173r 1.1425612e+06 5.61e-02 1.25e+03  -8.6 2.75e+05    -  1.00e+00 2.51e-13f 14
 174r 1.1419619e+06 5.61e-02 6.63e+02  -8.6 2.75e+05    -  1.52e-01 4.66e-01f  1
 175r 1.1412929e+06 5.61e-02 1.29e+01  -8.6 1.49e+05    -  9.24e-01 9.80e-01f  1
 176r 1.1412798e+06 5.61e-02 2.62e+00  -8.6 3.63e+03    -  1.00e+00 8.84e-01f  1
 177r 1.1412781e+06 5.61e-02 6.64e-04  -8.6 4.23e+02    -  1.00e+00 1.00e+00f  1

Number of Iterations....: 177

                                   (scaled)                 (unscaled)
Objective...............:   1.1412780869372056e+06    1.1412780869372056e+06
Dual infeasibility......:   1.0870707431573905e-02    1.0870707431573905e-02
Constraint violation....:   5.6091963323344263e-02    5.6091963323344263e-02
Complementarity.........:   2.5059043239745478e-09    2.5059043239745478e-09
Overall NLP error.......:   5.6091963323344263e-02    5.6091963323344263e-02


Number of objective function evaluations             = 728
Number of objective gradient evaluations             = 107
Number of equality constraint evaluations            = 730
Number of inequality constraint evaluations          = 0
Number of equality constraint Jacobian evaluations   = 189
Number of inequality constraint Jacobian evaluations = 0
Number of Lagrangian Hessian evaluations             = 178
Total CPU secs in IPOPT (w/o function evaluations)   =      0.206
Total CPU secs in NLP function evaluations           =      5.423

EXIT: Converged to a point of local infeasibility. Problem may be infeasible.
